(declare-const a Real)
(declare-const b Real)
(declare-const c Real)
(assert (= (+ a b c) 3))
(assert (not (<= (+ (* -81 (pow (+ (pow a 2) (pow b 2) (pow c 2)) 4)) (* 512 (+ 1 (pow (+ (* a b (+ (pow a 2) (* -1 (pow b 2)))) (* -1 a c (+ (pow a 2) (* -1 (pow c 2))))) 2)) (+ 1 (* (pow b 2) (pow c 2) (pow (+ (pow b 2) (* -1 (pow c 2))) 2))))) 0)))
(check-sat)
(get-model)
(exit)